&control
   prefix = 'Si'
   calculation = 'bands'
   restart_mode = 'from_scratch'
   outdir = './'
   pseudo_dir = '../pseudo'
/
&system
   ibrav = 0
   nat = 2
   ntyp = 1
   ecutwfc = 30
   ecutrho = 240
   occupations='fixed'
   nbnd = 20
/
&electrons
   electron_maxstep = 500
   conv_thr = 1.0d-12
/
ATOMIC_SPECIES
    Si 28.0855 Si.pbe-n-rrkjus_psl.1.0.0.UPF
ATOMIC_POSITIONS (crystal)
    Si 0.00 0.00 0.00
    Si 1/4 1/4 1/4
CELL_PARAMETERS (angstrom)
    0.0 2.715 2.715
    2.715 0.0 2.715
    2.715 2.715 0.0
K_POINTS {crystal_b}
5
  0.0000 0.5000 0.0000 30  !L
  0.0000 0.0000 0.0000 30  !G
  -0.500 0.0000 -0.500 30  !X
  -0.375 0.2500 -0.375 30  !U
  0.0000 0.0000 0.0000 30  !G