&control
   prefix = 'Si'
   calculation = 'vc-relax'
   restart_mode = 'from_scratch'
   outdir = './'
   pseudo_dir = '../pseudo'
   tstress = .true.
   tprnfor = .true.
/
&system
   ibrav = 0
   nat = 2
   ntyp = 1
   ecutwfc = 30
   ecutrho = 240
   occupations='fixed'
/
&electrons
   electron_maxstep = 500
   conv_thr = 1.0d-12
/
&ions
/
&cell
/
ATOMIC_SPECIES
    Si 28.0855 Si.pbe-n-rrkjus_psl.1.0.0.UPF
ATOMIC_POSITIONS (crystal)
    Si 0.00 0.00 0.00
    Si 1/4 1/4 1/4
CELL_PARAMETERS (angstrom)
    0.0 2.715 2.715
    2.715 0.0 2.715
    2.715 2.715 0.0
K_POINTS (automatic)
    6 6 6 0 0 0